(set-info :smt-lib-version 2.6)
(set-logic LIA)
(set-info
  :source |
 Generated by PSyCO 0.1
 More info in N. P. Lopes and J. Monteiro. Weakest Precondition Synthesis for
 Compiler Optimizations, VMCAI'14.
|)
(set-info :category "industrial")
(set-info :status unsat)
(declare-fun R_E1_V6 () Bool)
(declare-fun W_S2_V6 () Bool)
(declare-fun W_S1_V6 () Bool)
(declare-fun R_E1_V4 () Bool)
(declare-fun W_S2_V4 () Bool)
(declare-fun W_S1_V5 () Bool)
(declare-fun W_S1_V3 () Bool)
(declare-fun R_S1_V6 () Bool)
(declare-fun R_S1_V4 () Bool)
(declare-fun R_S1_V5 () Bool)
(declare-fun R_S1_V2 () Bool)
(declare-fun R_S1_V3 () Bool)
(declare-fun R_S1_V1 () Bool)
(declare-fun R_S2_V6 () Bool)
(declare-fun R_S2_V4 () Bool)
(declare-fun R_S2_V5 () Bool)
(declare-fun R_S2_V2 () Bool)
(declare-fun R_S2_V1 () Bool)
(declare-fun R_E1_V2 () Bool)
(declare-fun R_E1_V3 () Bool)
(declare-fun R_E1_V5 () Bool)
(declare-fun DISJ_W_S2_R_S2 () Bool)
(declare-fun DISJ_W_S2_R_S1 () Bool)
(declare-fun DISJ_W_S1_W_S2 () Bool)
(declare-fun DISJ_W_S1_R_S2 () Bool)
(declare-fun DISJ_W_S1_R_S1 () Bool)
(declare-fun W_S2_V5 () Bool)
(declare-fun W_S1_V4 () Bool)
(declare-fun W_S2_V2 () Bool)
(declare-fun W_S2_V3 () Bool)
(declare-fun W_S2_V1 () Bool)
(declare-fun W_S1_V2 () Bool)
(declare-fun W_S1_V1 () Bool)
(declare-fun R_E1_V1 () Bool)
(declare-fun R_S2_V3 () Bool)
(declare-fun DISJ_W_S2_R_E1 () Bool)
(declare-fun DISJ_W_S1_R_E1 () Bool)
(assert
 (let (($x103 (and W_S2_V6 R_E1_V6)))
 (let (($x2210 (not $x103)))
 (let (($x58 (and W_S1_V6 R_E1_V6)))
 (let (($x1923 (not $x58)))
 (let (($x175 (not R_E1_V4)))
 (let
 (($x2169
   (forall
    ((V3_0 Int) (V2_0 Int) 
     (V5_0 Int) (V4_0 Int) 
     (V6_0 Int) (MW_S1_V1 Bool) 
     (MW_S1_V3 Bool) (MW_S1_V2 Bool) 
     (MW_S1_V5 Bool) (MW_S1_V4 Bool) 
     (MW_S1_V6 Bool) (MW_S2_V1 Bool) 
     (MW_S2_V3 Bool) (MW_S2_V2 Bool) 
     (MW_S2_V5 Bool) (MW_S2_V4 Bool) 
     (MW_S2_V6 Bool) (S1_V1_!1421 Int) 
     (S1_V1_!1433 Int) (S1_V1_!1446 Int) 
     (S1_V1_!1458 Int) (S2_V5_!1430 Int) 
     (S2_V5_!1442 Int) (S2_V5_!1455 Int) 
     (S2_V5_!1467 Int) (S1_V3_!1422 Int) 
     (S1_V3_!1434 Int) (S1_V3_!1447 Int) 
     (S1_V3_!1459 Int) (S1_V2_!1423 Int) 
     (S1_V2_!1435 Int) (S1_V2_!1448 Int) 
     (S1_V2_!1460 Int) (E1_!1420 Int) 
     (E1_!1445 Int) (E1_!1470 Int) 
     (S2_V4_!1431 Int) (S2_V4_!1443 Int) 
     (S2_V4_!1456 Int) (S2_V4_!1468 Int) 
     (S2_V6_!1432 Int) (S2_V6_!1444 Int) 
     (S2_V6_!1457 Int) (S2_V6_!1469 Int) 
     (S1_V5_!1424 Int) (S1_V5_!1436 Int) 
     (S1_V5_!1449 Int) (S1_V5_!1461 Int) 
     (S2_V1_!1427 Int) (S2_V1_!1439 Int) 
     (S2_V1_!1452 Int) (S2_V1_!1464 Int) 
     (S1_V4_!1425 Int) (S1_V4_!1437 Int) 
     (S1_V4_!1450 Int) (S1_V4_!1462 Int) 
     (S2_V3_!1428 Int) (S2_V3_!1440 Int) 
     (S2_V3_!1453 Int) (S2_V3_!1465 Int) 
     (S2_V2_!1429 Int) (S2_V2_!1441 Int) 
     (S2_V2_!1454 Int) (S2_V2_!1466 Int) 
     (S1_V6_!1426 Int) (S1_V6_!1438 Int) 
     (S1_V6_!1451 Int) (S1_V6_!1463 Int))
    (let ((?x2038 (ite MW_S1_V6 S1_V6_!1451 V6_0)))
    (let ((?x2041 (ite MW_S2_V6 S2_V6_!1457 ?x2038)))
    (let ((?x1902 (ite MW_S1_V6 S1_V6_!1463 ?x2041)))
    (let ((?x1924 (ite MW_S2_V6 S2_V6_!1469 ?x1902)))
    (let ((?x1925 (ite MW_S1_V6 S1_V6_!1426 V6_0)))
    (let ((?x1926 (ite MW_S2_V6 S2_V6_!1432 ?x1925)))
    (let ((?x2012 (ite MW_S1_V6 S1_V6_!1438 ?x1926)))
    (let ((?x2014 (ite MW_S2_V6 S2_V6_!1444 ?x2012)))
    (let (($x2015 (= ?x2014 ?x1924)))
    (let ((?x2016 (ite MW_S1_V4 S1_V4_!1450 V4_0)))
    (let ((?x2017 (ite MW_S2_V4 S2_V4_!1456 ?x2016)))
    (let ((?x2018 (ite MW_S1_V4 S1_V4_!1462 ?x2017)))
    (let ((?x2022 (ite MW_S2_V4 S2_V4_!1468 ?x2018)))
    (let ((?x2040 (ite MW_S1_V4 S1_V4_!1425 V4_0)))
    (let ((?x2023 (ite MW_S2_V4 S2_V4_!1431 ?x2040)))
    (let ((?x2042 (ite MW_S1_V4 S1_V4_!1437 ?x2023)))
    (let ((?x2020 (ite MW_S2_V4 S2_V4_!1443 ?x2042)))
    (let (($x2024 (= ?x2020 ?x2022)))
    (let ((?x2025 (ite MW_S1_V5 S1_V5_!1449 V5_0)))
    (let ((?x2026 (ite MW_S2_V5 S2_V5_!1455 ?x2025)))
    (let ((?x2027 (ite MW_S1_V5 S1_V5_!1461 ?x2026)))
    (let ((?x2031 (ite MW_S2_V5 S2_V5_!1467 ?x2027)))
    (let ((?x2043 (ite MW_S1_V5 S1_V5_!1424 V5_0)))
    (let ((?x2032 (ite MW_S2_V5 S2_V5_!1430 ?x2043)))
    (let ((?x1933 (ite MW_S1_V5 S1_V5_!1436 ?x2032)))
    (let ((?x2044 (ite MW_S2_V5 S2_V5_!1442 ?x1933)))
    (let (($x2033 (= ?x2044 ?x2031)))
    (let ((?x2045 (ite MW_S1_V2 S1_V2_!1448 V2_0)))
    (let ((?x2046 (ite MW_S2_V2 S2_V2_!1454 ?x2045)))
    (let ((?x2034 (ite MW_S1_V2 S1_V2_!1460 ?x2046)))
    (let ((?x2047 (ite MW_S2_V2 S2_V2_!1466 ?x2034)))
    (let ((?x2035 (ite MW_S1_V2 S1_V2_!1423 V2_0)))
    (let ((?x2049 (ite MW_S2_V2 S2_V2_!1429 ?x2035)))
    (let ((?x2048 (ite MW_S1_V2 S1_V2_!1435 ?x2049)))
    (let ((?x2050 (ite MW_S2_V2 S2_V2_!1441 ?x2048)))
    (let (($x2051 (= ?x2050 ?x2047)))
    (let ((?x2052 (* (- 1) E1_!1470)))
    (let ((?x2053 (ite MW_S1_V3 S1_V3_!1447 V3_0)))
    (let ((?x2054 (ite MW_S2_V3 S2_V3_!1453 ?x2053)))
    (let ((?x2055 (ite MW_S1_V3 S1_V3_!1459 ?x2054)))
    (let ((?x2056 (ite MW_S2_V3 S2_V3_!1465 ?x2055)))
    (let ((?x2062 (ite MW_S1_V3 S1_V3_!1422 V3_0)))
    (let ((?x2063 (+ 1 ?x2062)))
    (let ((?x1944 (ite MW_S2_V3 S2_V3_!1428 ?x2063)))
    (let ((?x1945 (ite MW_S1_V3 S1_V3_!1434 ?x1944)))
    (let ((?x1932 (+ 1 ?x1945)))
    (let ((?x1983 (ite MW_S2_V3 S2_V3_!1440 ?x1932)))
    (let ((?x1970 (ite MW_S1_V1 S1_V1_!1446 E1_!1445)))
    (let ((?x2030 (ite MW_S2_V1 S2_V1_!1452 ?x1970)))
    (let ((?x1953 (+ 1 ?x2030)))
    (let ((?x1997 (ite MW_S1_V1 S1_V1_!1458 ?x1953)))
    (let ((?x1998 (ite MW_S2_V1 S2_V1_!1464 ?x1997)))
    (let ((?x1999 (ite MW_S1_V1 S1_V1_!1421 E1_!1420)))
    (let ((?x2066 (ite MW_S2_V1 S2_V1_!1427 ?x1999)))
    (let ((?x2059 (+ 1 ?x2066)))
    (let ((?x2003 (ite MW_S1_V1 S1_V1_!1433 ?x2059)))
    (let ((?x2004 (ite MW_S2_V1 S2_V1_!1439 ?x2003)))
    (let (($x2501 (= ?x2004 ?x1998)))
    (let ((?x2070 (+ (- 1) ?x2047)))
    (let (($x2071 (>= ?x1998 ?x2070)))
    (let (($x2072 (<= ?x2046 ?x1953)))
    (let (($x2073 (not $x2072)))
    (let (($x2074 (<= V2_0 E1_!1445)))
    (let (($x2075 (not $x2074)))
    (let ((?x2060 (+ (- 1) ?x2050)))
    (let (($x2078 (>= ?x2004 ?x2060)))
    (let (($x2077 (<= ?x2049 ?x2059)))
    (let (($x2902 (not $x2077)))
    (let (($x2896 (<= V2_0 E1_!1420)))
    (let (($x2924 (not $x2896)))
    (let (($x2884 (and $x2924 $x2902 $x2078 $x2075 $x2073 $x2071)))
    (let (($x2916 (not $x2884)))
    (let (($x2798 (not MW_S2_V6)))
    (let (($x2949 (or $x2798 W_S2_V6)))
    (let (($x2938 (not MW_S2_V4)))
    (let (($x2291 (or $x2938 W_S2_V4)))
    (let (($x2926 (not MW_S2_V2)))
    (let (($x2911 (not MW_S2_V3)))
    (let (($x2907 (not MW_S2_V1)))
    (let (($x2309 (not MW_S1_V6)))
    (let (($x1972 (or $x2309 W_S1_V6)))
    (let (($x2886 (not MW_S1_V5)))
    (let (($x1913 (or $x2886 W_S1_V5)))
    (let (($x2880 (not MW_S1_V2)))
    (let (($x2180 (not MW_S1_V3)))
    (let (($x2341 (or $x2180 W_S1_V3)))
    (let (($x2893 (not MW_S1_V1)))
    (let (($x2887 (= S1_V6_!1463 S1_V6_!1438)))
    (let (($x2912 (= ?x2041 ?x1926)))
    (let (($x238 (not R_S1_V6)))
    (let (($x2941 (or $x238 $x2912)))
    (let (($x2940 (= ?x2017 ?x2023)))
    (let (($x236 (not R_S1_V4)))
    (let (($x1698 (or $x236 $x2940)))
    (let (($x2114 (= ?x2026 ?x2032)))
    (let (($x234 (not R_S1_V5)))
    (let (($x1700 (or $x234 $x2114)))
    (let (($x1651 (= ?x2046 ?x2049)))
    (let (($x232 (not R_S1_V2)))
    (let (($x1948 (or $x232 $x1651)))
    (let (($x1609 (= ?x2054 ?x1944)))
    (let (($x230 (not R_S1_V3)))
    (let (($x2388 (or $x230 $x1609)))
    (let (($x2694 (= ?x2030 ?x2066)))
    (let (($x228 (not R_S1_V1)))
    (let (($x2692 (or $x228 $x2694)))
    (let (($x2387 (and $x2692 $x2388 $x1948 $x1700 $x1698 $x2941)))
    (let (($x2690 (not $x2387)))
    (let (($x2505 (or $x2690 $x2887)))
    (let (($x2594 (= S1_V6_!1463 S1_V6_!1426)))
    (let (($x2760 (= ?x2041 V6_0)))
    (let (($x2435 (or $x238 $x2760)))
    (let (($x2771 (= ?x2017 V4_0)))
    (let (($x2726 (or $x236 $x2771)))
    (let (($x2775 (= ?x2026 V5_0)))
    (let (($x2679 (or $x234 $x2775)))
    (let (($x2811 (= ?x2046 V2_0)))
    (let (($x2619 (or $x232 $x2811)))
    (let (($x2236 (= ?x2054 V3_0)))
    (let (($x2439 (or $x230 $x2236)))
    (let ((?x1860 (+ (- 1) E1_!1420)))
    (let (($x2188 (= ?x2030 ?x1860)))
    (let (($x2391 (or $x228 $x2188)))
    (let (($x1674 (and $x2391 $x2439 $x2619 $x2679 $x2726 $x2435)))
    (let (($x2323 (not $x1674)))
    (let (($x2314 (or $x2323 $x2594)))
    (let (($x2319 (= S1_V6_!1451 S1_V6_!1463)))
    (let (($x2422 (= V6_0 ?x2041)))
    (let (($x1967 (or $x238 $x2422)))
    (let (($x2741 (= V4_0 ?x2017)))
    (let (($x2739 (or $x236 $x2741)))
    (let (($x2183 (= V5_0 ?x2026)))
    (let (($x2640 (or $x234 $x2183)))
    (let (($x2160 (= V2_0 ?x2046)))
    (let (($x2362 (or $x232 $x2160)))
    (let (($x2627 (= V3_0 ?x2054)))
    (let (($x2635 (or $x230 $x2627)))
    (let (($x2794 (= E1_!1445 ?x1953)))
    (let (($x2529 (or $x228 $x2794)))
    (let (($x2527 (and $x2529 $x2635 $x2362 $x2640 $x2739 $x1967)))
    (let (($x2521 (not $x2527)))
    (let (($x3023 (or $x2521 $x2319)))
    (let (($x2800 (= S1_V6_!1451 S1_V6_!1438)))
    (let (($x2806 (= V6_0 ?x1926)))
    (let (($x2839 (or $x238 $x2806)))
    (let (($x2840 (= V4_0 ?x2023)))
    (let (($x2847 (or $x236 $x2840)))
    (let (($x2818 (= V5_0 ?x2032)))
    (let (($x2863 (or $x234 $x2818)))
    (let (($x2812 (= V2_0 ?x2049)))
    (let (($x3036 (or $x232 $x2812)))
    (let (($x2519 (= V3_0 ?x1944)))
    (let (($x2517 (or $x230 $x2519)))
    (let (($x3034 (= E1_!1445 ?x2059)))
    (let (($x3032 (or $x228 $x3034)))
    (let (($x2515 (and $x3032 $x2517 $x3036 $x2863 $x2847 $x2839)))
    (let (($x2509 (not $x2515)))
    (let (($x2507 (or $x2509 $x2800)))
    (let (($x2946 (= S1_V6_!1451 S1_V6_!1426)))
    (let (($x2919 (= E1_!1445 E1_!1420)))
    (let (($x2917 (or $x228 $x2919)))
    (let (($x2915 (not $x2917)))
    (let (($x2905 (or $x2915 $x2946)))
    (let (($x2903 (= S1_V6_!1438 S1_V6_!1426)))
    (let (($x2901 (= ?x1926 V6_0)))
    (let (($x2899 (or $x238 $x2901)))
    (let (($x2897 (= ?x2023 V4_0)))
    (let (($x2895 (or $x236 $x2897)))
    (let (($x2142 (= ?x2032 V5_0)))
    (let (($x2285 (or $x234 $x2142)))
    (let (($x2186 (= ?x2049 V2_0)))
    (let (($x1958 (or $x232 $x2186)))
    (let (($x1402 (= ?x1944 V3_0)))
    (let (($x1648 (or $x230 $x1402)))
    (let (($x2885 (= ?x2066 ?x1860)))
    (let (($x2883 (or $x228 $x2885)))
    (let (($x1256 (and $x2883 $x1648 $x1958 $x2285 $x2895 $x2899)))
    (let (($x2498 (not $x1256)))
    (let (($x2561 (or $x2498 $x2903)))
    (let (($x2869 (= S2_V2_!1454 S2_V2_!1466)))
    (let (($x2736 (= ?x2038 ?x1902)))
    (let (($x253 (not R_S2_V6)))
    (let (($x2618 (or $x253 $x2736)))
    (let (($x2712 (= ?x2016 ?x2018)))
    (let (($x251 (not R_S2_V4)))
    (let (($x2745 (or $x251 $x2712)))
    (let (($x2607 (= ?x2025 ?x2027)))
    (let (($x249 (not R_S2_V5)))
    (let (($x2601 (or $x249 $x2607)))
    (let (($x2597 (= ?x2045 ?x2034)))
    (let (($x247 (not R_S2_V2)))
    (let (($x2551 (or $x247 $x2597)))
    (let (($x1664 (= ?x1970 ?x1997)))
    (let (($x243 (not R_S2_V1)))
    (let (($x2412 (or $x243 $x1664)))
    (let (($x2441 (and $x2412 $x2551 $x2601 $x2745 $x2618)))
    (let (($x2415 (not $x2441)))
    (let (($x2148 (or $x2415 $x2869)))
    (let (($x2557 (= S2_V2_!1454 S2_V2_!1441)))
    (let (($x2531 (= ?x2038 ?x2012)))
    (let (($x2525 (or $x253 $x2531)))
    (let (($x2523 (= ?x2016 ?x2042)))
    (let (($x2553 (or $x251 $x2523)))
    (let (($x2554 (= ?x2025 ?x1933)))
    (let (($x2564 (or $x249 $x2554)))
    (let (($x2513 (= ?x2045 ?x2048)))
    (let (($x2511 (or $x247 $x2513)))
    (let (($x2374 (= ?x1970 ?x2003)))
    (let (($x2021 (or $x243 $x2374)))
    (let (($x2395 (and $x2021 $x2511 $x2564 $x2553 $x2525)))
    (let (($x2393 (not $x2395)))
    (let (($x2121 (or $x2393 $x2557)))
    (let (($x1976 (= S2_V2_!1454 S2_V2_!1429)))
    (let (($x2305 (= ?x2038 ?x1925)))
    (let (($x2095 (or $x253 $x2305)))
    (let (($x1964 (= ?x2016 ?x2040)))
    (let (($x2339 (or $x251 $x1964)))
    (let (($x2158 (= ?x2025 ?x2043)))
    (let (($x2494 (or $x249 $x2158)))
    (let (($x2633 (= ?x2045 ?x2035)))
    (let (($x2111 (or $x247 $x2633)))
    (let (($x2566 (= ?x1970 ?x1999)))
    (let (($x2125 (or $x243 $x2566)))
    (let (($x2267 (and $x2125 $x2111 $x2494 $x2339 $x2095)))
    (let (($x1941 (not $x2267)))
    (let (($x2102 (or $x1941 $x1976)))
    (let (($x1721 (= S2_V2_!1441 S2_V2_!1466)))
    (let (($x1722 (= ?x2012 ?x1902)))
    (let (($x1723 (or $x253 $x1722)))
    (let (($x2228 (= ?x2042 ?x2018)))
    (let (($x2218 (or $x251 $x2228)))
    (let (($x2145 (= ?x1933 ?x2027)))
    (let (($x1617 (or $x249 $x2145)))
    (let (($x2151 (= ?x2048 ?x2034)))
    (let (($x2226 (or $x247 $x2151)))
    (let (($x2536 (= ?x2003 ?x1997)))
    (let (($x2642 (or $x243 $x2536)))
    (let (($x1975 (and $x2642 $x2226 $x1617 $x2218 $x1723)))
    (let (($x2351 (not $x1975)))
    (let (($x2264 (or $x2351 $x1721)))
    (let (($x2753 (= S2_V2_!1441 S2_V2_!1429)))
    (let (($x2764 (= ?x2012 ?x1925)))
    (let (($x2622 (or $x253 $x2764)))
    (let (($x2623 (= ?x2042 ?x2040)))
    (let (($x2684 (or $x251 $x2623)))
    (let (($x2685 (= ?x1933 ?x2043)))
    (let (($x2695 (or $x249 $x2685)))
    (let (($x2675 (= ?x2048 ?x2035)))
    (let (($x2669 (or $x247 $x2675)))
    (let (($x2661 (= ?x2003 ?x1999)))
    (let (($x2659 (or $x243 $x2661)))
    (let (($x1851 (and $x2659 $x2669 $x2695 $x2684 $x2622)))
    (let (($x2104 (not $x1851)))
    (let (($x2140 (or $x2104 $x2753)))
    (let (($x2670 (= S2_V2_!1429 S2_V2_!1466)))
    (let (($x2676 (= ?x1925 ?x1902)))
    (let (($x2624 (or $x253 $x2676)))
    (let (($x2381 (= ?x2040 ?x2018)))
    (let (($x2258 (or $x251 $x2381)))
    (let (($x2256 (= ?x2043 ?x2027)))
    (let (($x2682 (or $x249 $x2256)))
    (let (($x2683 (= ?x2035 ?x2034)))
    (let (($x2693 (or $x247 $x2683)))
    (let (($x2643 (= ?x1999 ?x1997)))
    (let (($x2641 (or $x243 $x2643)))
    (let (($x2403 (and $x2641 $x2693 $x2682 $x2258 $x2624)))
    (let (($x2401 (not $x2403)))
    (let (($x1866 (or $x2401 $x2670)))
    (let (($x2765 (= S2_V3_!1465 S2_V3_!1453)))
    (let (($x2546 (= ?x1902 ?x2038)))
    (let (($x2644 (or $x253 $x2546)))
    (let (($x2542 (= ?x2018 ?x2016)))
    (let (($x2286 (or $x251 $x2542)))
    (let (($x2103 (= ?x2027 ?x2025)))
    (let (($x2345 (or $x249 $x2103)))
    (let (($x2270 (= ?x2034 ?x2045)))
    (let (($x1669 (or $x247 $x2270)))
    (let (($x1892 (= ?x1997 ?x1970)))
    (let (($x2287 (or $x243 $x1892)))
    (let (($x2098 (and $x2287 $x1669 $x2345 $x2286 $x2644)))
    (let (($x2099 (not $x2098)))
    (let (($x1947 (or $x2099 $x2765)))
    (let (($x2348 (= S2_V3_!1465 S2_V3_!1428)))
    (let (($x2344 (= ?x1902 ?x1925)))
    (let (($x2350 (or $x253 $x2344)))
    (let (($x2204 (= ?x2018 ?x2040)))
    (let (($x2110 (or $x251 $x2204)))
    (let (($x2466 (= ?x2027 ?x2043)))
    (let (($x2252 (or $x249 $x2466)))
    (let (($x2514 (= ?x2034 ?x2035)))
    (let (($x2265 (or $x247 $x2514)))
    (let (($x2234 (= ?x1997 ?x1999)))
    (let (($x2191 (or $x243 $x2234)))
    (let (($x1903 (and $x2191 $x2265 $x2252 $x2110 $x2350)))
    (let (($x1734 (not $x1903)))
    (let (($x2064 (or $x1734 $x2348)))
    (let (($x2177 (= S2_V3_!1453 S2_V3_!1428)))
    (let (($x1693 (or $x1941 $x2177)))
    (let (($x1957 (= S2_V3_!1440 S2_V3_!1465)))
    (let (($x1929 (or $x2351 $x1957)))
    (let (($x2544 (= S2_V3_!1440 S2_V3_!1453)))
    (let (($x2516 (= ?x2012 ?x2038)))
    (let (($x2550 (or $x253 $x2516)))
    (let (($x2522 (= ?x2042 ?x2016)))
    (let (($x1952 (or $x251 $x2522)))
    (let (($x2248 (= ?x1933 ?x2025)))
    (let (($x2485 (or $x249 $x2248)))
    (let (($x2560 (= ?x2048 ?x2045)))
    (let (($x2555 (or $x247 $x2560)))
    (let (($x2651 (= ?x2003 ?x1970)))
    (let (($x2596 (or $x243 $x2651)))
    (let (($x2196 (and $x2596 $x2555 $x2485 $x1952 $x2550)))
    (let (($x2161 (not $x2196)))
    (let (($x1655 (or $x2161 $x2544)))
    (let (($x2487 (= S2_V3_!1440 S2_V3_!1428)))
    (let (($x1654 (or $x2104 $x2487)))
    (let (($x2274 (= S1_V4_!1450 S1_V4_!1462)))
    (let (($x2582 (or $x2521 $x2274)))
    (let (($x2615 (= S1_V4_!1450 S1_V4_!1425)))
    (let (($x2673 (or $x2915 $x2615)))
    (let (($x2468 (= S1_V4_!1437 S1_V4_!1462)))
    (let (($x2541 (= ?x1926 ?x2041)))
    (let (($x2172 (or $x238 $x2541)))
    (let (($x2332 (= ?x2023 ?x2017)))
    (let (($x2109 (or $x236 $x2332)))
    (let (($x2456 (= ?x2032 ?x2026)))
    (let (($x2474 (or $x234 $x2456)))
    (let (($x2455 (= ?x2049 ?x2046)))
    (let (($x2781 (or $x232 $x2455)))
    (let (($x2442 (= ?x1944 ?x2054)))
    (let (($x2404 (or $x230 $x2442)))
    (let (($x2426 (= ?x2066 ?x2030)))
    (let (($x2398 (or $x228 $x2426)))
    (let (($x2431 (and $x2398 $x2404 $x2781 $x2474 $x2109 $x2172)))
    (let (($x2432 (not $x2431)))
    (let (($x2428 (or $x2432 $x2468)))
    (let (($x2845 (= S1_V4_!1437 S1_V4_!1450)))
    (let ((?x1727 (+ (- 1) E1_!1445)))
    (let (($x1904 (= ?x2066 ?x1727)))
    (let (($x1900 (or $x228 $x1904)))
    (let (($x2700 (and $x1900 $x1648 $x1958 $x2285 $x2895 $x2899)))
    (let (($x2698 (not $x2700)))
    (let (($x2336 (or $x2698 $x2845)))
    (let (($x2870 (= S1_V4_!1437 S1_V4_!1425)))
    (let (($x1937 (or $x2498 $x2870)))
    (let (($x2717 (= S1_V4_!1425 S1_V4_!1462)))
    (let (($x2866 (= E1_!1420 ?x1953)))
    (let (($x2864 (or $x228 $x2866)))
    (let (($x2862 (and $x2864 $x2635 $x2362 $x2640 $x2739 $x1967)))
    (let (($x2835 (not $x2862)))
    (let (($x2833 (or $x2835 $x2717)))
    (let (($x2831 (= S2_V1_!1464 S2_V1_!1452)))
    (let (($x1857 (or $x2099 $x2831)))
    (let (($x2827 (= S2_V1_!1464 S2_V1_!1439)))
    (let (($x2825 (= ?x1902 ?x2012)))
    (let (($x2823 (or $x253 $x2825)))
    (let (($x2821 (= ?x2018 ?x2042)))
    (let (($x2819 (or $x251 $x2821)))
    (let (($x2817 (= ?x2027 ?x1933)))
    (let (($x2815 (or $x249 $x2817)))
    (let (($x2333 (= ?x2034 ?x2048)))
    (let (($x2343 (or $x247 $x2333)))
    (let (($x2303 (= ?x1997 ?x2003)))
    (let (($x2206 (or $x243 $x2303)))
    (let (($x1968 (and $x2206 $x2343 $x2815 $x2819 $x2823)))
    (let (($x1670 (not $x1968)))
    (let (($x1676 (or $x1670 $x2827)))
    (let (($x2232 (= S2_V1_!1464 S2_V1_!1427)))
    (let (($x1673 (or $x1734 $x2232)))
    (let (($x1659 (= S2_V1_!1452 S2_V1_!1439)))
    (let (($x2249 (or $x2393 $x1659)))
    (let (($x2371 (= S2_V1_!1427 S2_V1_!1452)))
    (let (($x2369 (= ?x1925 ?x2038)))
    (let (($x2157 (or $x253 $x2369)))
    (let (($x1616 (= ?x2040 ?x2016)))
    (let (($x2470 (or $x251 $x1616)))
    (let (($x2464 (= ?x2043 ?x2025)))
    (let (($x2465 (or $x249 $x2464)))
    (let (($x2539 (= ?x2035 ?x2045)))
    (let (($x2473 (or $x247 $x2539)))
    (let (($x2176 (= ?x1999 ?x1970)))
    (let (($x2175 (or $x243 $x2176)))
    (let (($x2216 (and $x2175 $x2473 $x2465 $x2470 $x2157)))
    (let (($x2235 (not $x2216)))
    (let (($x2153 (or $x2235 $x2371)))
    (let (($x1714 (= S2_V1_!1427 S2_V1_!1439)))
    (let (($x2368 (= ?x1925 ?x2012)))
    (let (($x2190 (or $x253 $x2368)))
    (let (($x2162 (= ?x2040 ?x2042)))
    (let (($x2251 (or $x251 $x2162)))
    (let (($x2250 (= ?x2043 ?x1933)))
    (let (($x2149 (or $x249 $x2250)))
    (let (($x2189 (= ?x2035 ?x2048)))
    (let (($x2463 (or $x247 $x2189)))
    (let (($x2520 (= ?x1999 ?x2003)))
    (let (($x2547 (or $x243 $x2520)))
    (let (($x2409 (and $x2547 $x2463 $x2149 $x2251 $x2190)))
    (let (($x2407 (not $x2409)))
    (let (($x2193 (or $x2407 $x1714)))
    (let (($x2467 (= S1_V5_!1461 S1_V5_!1424)))
    (let (($x2543 (or $x2323 $x2467)))
    (let (($x2537 (= S1_V5_!1449 S1_V5_!1461)))
    (let (($x2504 (or $x2521 $x2537)))
    (let (($x2634 (= S1_V5_!1449 S1_V5_!1424)))
    (let (($x2664 (or $x2915 $x2634)))
    (let (($x2574 (= S1_V5_!1436 S1_V5_!1461)))
    (let (($x2223 (or $x2432 $x2574)))
    (let (($x2626 (= S1_V5_!1436 S1_V5_!1449)))
    (let (($x2143 (or $x2698 $x2626)))
    (let (($x2755 (= S1_V5_!1436 S1_V5_!1424)))
    (let (($x1946 (or $x2498 $x2755)))
    (let (($x2637 (= S2_V6_!1469 S2_V6_!1444)))
    (let (($x1894 (or $x1670 $x2637)))
    (let (($x2780 (= S2_V6_!1457 S2_V6_!1469)))
    (let (($x2306 (or $x2415 $x2780)))
    (let (($x2776 (= S2_V6_!1457 S2_V6_!1444)))
    (let (($x2315 (or $x2393 $x2776)))
    (let (($x2772 (= S2_V6_!1457 S2_V6_!1432)))
    (let (($x2397 (or $x1941 $x2772)))
    (let (($x2743 (= S2_V6_!1432 S2_V6_!1469)))
    (let (($x2399 (or $x2401 $x2743)))
    (let (($x2735 (= S2_V6_!1432 S2_V6_!1444)))
    (let (($x2405 (or $x2407 $x2735)))
    (let (($x2731 (= S2_V4_!1468 S2_V4_!1431)))
    (let (($x2411 (or $x1734 $x2731)))
    (let (($x2727 (= S2_V4_!1456 S2_V4_!1468)))
    (let (($x2413 (or $x2415 $x2727)))
    (let (($x2723 (= S2_V4_!1456 S2_V4_!1431)))
    (let (($x2443 (or $x1941 $x2723)))
    (let (($x2719 (= S2_V4_!1443 S2_V4_!1468)))
    (let (($x2445 (or $x2351 $x2719)))
    (let (($x2713 (= S2_V4_!1443 S2_V4_!1456)))
    (let (($x2447 (or $x2161 $x2713)))
    (let (($x2709 (= S2_V4_!1443 S2_V4_!1431)))
    (let (($x2449 (or $x2104 $x2709)))
    (let (($x2705 (= E1_!1470 E1_!1445)))
    (let (($x2703 (= ?x1924 V6_0)))
    (let (($x177 (not R_E1_V6)))
    (let (($x2658 (or $x177 $x2703)))
    (let (($x2652 (= ?x2047 V2_0)))
    (let (($x171 (not R_E1_V2)))
    (let (($x2424 (or $x171 $x2652)))
    (let (($x1907 (= ?x2056 V3_0)))
    (let (($x169 (not R_E1_V3)))
    (let (($x2007 (or $x169 $x1907)))
    (let (($x2105 (and $x2007 $x2424 $x2658)))
    (let (($x2107 (not $x2105)))
    (let (($x2451 (or $x2107 $x2705)))
    (let (($x2508 (= E1_!1470 E1_!1420)))
    (let (($x2108 (or $x2107 $x2508)))
    (let (($x2535 (= S1_V2_!1460 S1_V2_!1448)))
    (let (($x2490 (= ?x2030 ?x1727)))
    (let (($x2417 (or $x228 $x2490)))
    (let (($x2418 (and $x2417 $x2439 $x2619 $x2679 $x2726 $x2435)))
    (let (($x1611 (not $x2418)))
    (let (($x1607 (or $x1611 $x2535)))
    (let (($x1701 (= S1_V2_!1460 S1_V2_!1435)))
    (let (($x2448 (or $x2690 $x1701)))
    (let (($x2317 (= S1_V2_!1460 S1_V2_!1423)))
    (let (($x1718 (or $x2323 $x2317)))
    (let (($x2240 (= S1_V2_!1448 S1_V2_!1423)))
    (let (($x1984 (or $x2915 $x2240)))
    (let (($x1978 (= S1_V2_!1435 S1_V2_!1448)))
    (let (($x2438 (or $x2698 $x1978)))
    (let (($x1986 (= S1_V2_!1435 S1_V2_!1423)))
    (let (($x2437 (or $x2498 $x1986)))
    (let (($x2294 (= S1_V3_!1459 S1_V3_!1422)))
    (let (($x1684 (or $x2323 $x2294)))
    (let (($x1973 (= S1_V3_!1447 S1_V3_!1459)))
    (let (($x2239 (or $x2521 $x1973)))
    (let (($x2477 (= S1_V3_!1447 S1_V3_!1422)))
    (let (($x2478 (or $x2915 $x2477)))
    (let (($x2479 (= S1_V3_!1434 S1_V3_!1459)))
    (let (($x2150 (or $x2432 $x2479)))
    (let (($x1771 (= S1_V3_!1434 S1_V3_!1447)))
    (let (($x2165 (or $x2698 $x1771)))
    (let (($x2254 (= S1_V3_!1434 S1_V3_!1422)))
    (let (($x2106 (or $x2498 $x2254)))
    (let (($x2481 (= S2_V5_!1467 S2_V5_!1455)))
    (let (($x2101 (or $x2099 $x2481)))
    (let (($x2394 (= S2_V5_!1467 S2_V5_!1430)))
    (let (($x2133 (or $x1734 $x2394)))
    (let (($x2164 (= S2_V5_!1455 S2_V5_!1430)))
    (let (($x1899 (or $x1941 $x2164)))
    (let (($x2178 (= S2_V5_!1442 S2_V5_!1467)))
    (let (($x2280 (or $x2351 $x2178)))
    (let (($x2421 (= S2_V5_!1442 S2_V5_!1455)))
    (let (($x2370 (or $x2161 $x2421)))
    (let (($x2292 (= S2_V5_!1442 S2_V5_!1430)))
    (let (($x1627 (or $x2104 $x2292)))
    (let (($x2316 (= S1_V1_!1458 S1_V1_!1446)))
    (let (($x2113 (or $x1611 $x2316)))
    (let (($x2243 (= S1_V1_!1458 S1_V1_!1433)))
    (let (($x2663 (or $x2690 $x2243)))
    (let (($x2453 (= S1_V1_!1458 S1_V1_!1421)))
    (let (($x2454 (or $x2323 $x2453)))
    (let (($x2552 (= S1_V1_!1446 S1_V1_!1421)))
    (let (($x2562 (or $x2915 $x2552)))
    (let (($x2524 (= S1_V1_!1433 S1_V1_!1446)))
    (let (($x2696 (or $x2698 $x2524)))
    (let (($x1632 (= S1_V1_!1433 S1_V1_!1421)))
    (let (($x2549 (or $x2498 $x1632)))
    (let
    (($x1725
      (and $x2549 $x2696 $x2562 $x2454 $x2663 $x2113 $x1627 $x2370 $x2280
      $x1899 $x2133 $x2101 $x2106 $x2165 $x2150 $x2478 $x2239 $x1684 $x2437
      $x2438 $x1984 $x1718 $x2448 $x1607 $x2919 $x2108 $x2451 $x2449 $x2447
      $x2445 $x2443 $x2413 $x2411 $x2405 $x2399 $x2397 $x2315 $x2306 $x1894
      $x1946 $x2143 $x2223 $x2664 $x2504 $x2543 $x2193 $x2153 $x2249 $x1673
      $x1676 $x1857 $x2833 $x1937 $x2336 $x2428 $x2673 $x2582 $x1654 $x1655
      $x1929 $x1693 $x2064 $x1947 $x1866 $x2140 $x2264 $x2102 $x2121 $x2148
      $x2561 $x2905 $x2507 $x3023 $x2314 $x2505 $x2893 $x2341 $x2880 $x1913
      $x1972 $x2907 $x2911 $x2926 $x2291 $x2949)))
    (let (($x1665 (not $x1725)))
    (or $x1665 $x2916
    (and $x2501 (= ?x1983 (+ ?x2056 ?x2047 ?x2052)) $x2051 $x2033 $x2024
    $x2015)))))))))))))))))))))))))))))))))))))))))))))))))))))))))))))))))))))))))))))))))))))))))))))))))))))))))))))))))))))))))))))))))))))))))))))))))))))))))))))))))))))))))))))))))))))))))))))))))))))))))))))))))))))))))))))))))))))))))))))))))))))))))))))))))))))))))))))))))))))))))))))))))))))))))))))))))))))))))))))))))))))))))))))))))))))))))))))))))))))))))))))))))))))))))))))))))))))))))))))))))))))))))))))))))))))))))))))))))))))))))))))))))))))))))))))))))))))))))))))))))))))))))))))))))))))))))))))
 (let (($x173 (not R_E1_V5)))
 (let (($x93 (and W_S2_V6 R_S2_V6)))
 (let (($x92 (and W_S2_V4 R_S2_V4)))
 (let (($x2094 (or R_S2_V5 $x92 $x93)))
 (let (($x2214 (not $x2094)))
 (let (($x2065 (= DISJ_W_S2_R_S2 $x2214)))
 (let (($x83 (and W_S2_V6 R_S1_V6)))
 (let (($x82 (and W_S2_V4 R_S1_V4)))
 (let (($x1930 (or R_S1_V5 $x82 $x83)))
 (let (($x1942 (not $x1930)))
 (let (($x1939 (= DISJ_W_S2_R_S1 $x1942)))
 (let (($x73 (and W_S1_V6 W_S2_V6)))
 (let (($x2212 (or W_S1_V5 W_S2_V4 $x73)))
 (let (($x2058 (not $x2212)))
 (let (($x2213 (= DISJ_W_S1_W_S2 $x2058)))
 (let (($x50 (and W_S1_V3 R_E1_V3)))
 (let (($x2011 (not $x50)))
 (let (($x42 (and W_S1_V6 R_S2_V6)))
 (let (($x38 (and W_S1_V5 R_S2_V5)))
 (let (($x1498 (or $x38 R_S2_V4 $x42)))
 (let (($x1501 (not $x1498)))
 (let (($x2377 (= DISJ_W_S1_R_S2 $x1501)))
 (let (($x26 (and W_S1_V6 R_S1_V6)))
 (let (($x21 (and W_S1_V5 R_S1_V5)))
 (let (($x15 (and W_S1_V3 R_S1_V3)))
 (let (($x2375 (or $x15 $x21 R_S1_V4 $x26)))
 (let (($x2219 (not $x2375)))
 (let (($x1658 (= DISJ_W_S1_R_S1 $x2219)))
 (let (($x1192 (not W_S2_V2)))
 (let (($x1189 (not W_S2_V3)))
 (let (($x1186 (not W_S2_V1)))
 (let (($x1091 (not W_S1_V2)))
 (let (($x1078 (not W_S1_V1)))
 (let (($x167 (not R_E1_V1)))
 (let (($x245 (not R_S2_V3)))
 (and DISJ_W_S1_R_E1 DISJ_W_S2_R_E1 $x245 $x167 $x1078 $x1091 $x1186 $x1189
 $x1192 W_S1_V4 W_S2_V5 $x1658 $x2377 $x2011 $x2213 $x1939 $x2065 $x173
 $x2169 $x175 $x1923 $x2210)))))))))))))))))))))))))))))))))))))))))))
(assert
 (let (($x1084 (not W_S1_V3)))
 (let (($x230 (not R_S1_V3)))
 (let (($x3270 (and $x230 $x1084))) (not $x3270)))))
(check-sat)
(exit)

